outputs/case_382.model.txt
fhc_confidentiality_measures_disclosed = False
violation_17 = False
fhc_violate_article_43_rules = False
violation_2 = False
fhc_illegal_merger_or_transfer = False
violation_11 = False
fhc_not_disposed_within_deadline = False
fhc_violate_short_term_fund_use = False
fhc_violate_ratio_or_disposal_restrictions = False
fhc_assistance_duties_fulfilled = True
fhc_violate_order_article_55_1 = False
violation_13 = False
fhc_violate_article_53_1_or_2 = False
violation_19 = False
violation_6 = False
fhc_violate_order_article_56_2 = False
fhc_not_reported_to_authority = False
fhc_internal_control_executed = True
fhc_confidentiality_maintained = True
confidentiality_obligation = True
fhc_capital_replenished_within_deadline = True
fhc_illegal_real_estate_investment = False
violation_5 = False
violation_9 = False
violation_10 = False
violation_3 = False
fhc_illegal_share_increase = False
violation_4 = False
violation_12 = False
violation_1 = False
fhc_hold_shares_without_approval = False
fhc_not_reported_or_disclosed = False
violation_18 = False
violation_7 = False
fhc_internal_control_established = True
violation_15 = False
penalty = False
fhc_violate_article_45_rules = False
fhc_establishment_application_submitted = True
violation_16 = False
violation_14 = False
violation_8 = False
fhc_violate_issuance_conditions_or_deadline = False
fhc_illegal_shareholding = False
fhc_violate_reporting_or_announcement_rules = False
fhc_illegal_pledge_setting = False
confidentiality_measures_disclosed = False